NAME : XML100_3165_17
DIMENSION : 101
NB_CLUSTERS : 13
CLUSTERING_ALG : KMeans
CLUSTERING_PARAMS : k(12)
CLUSTERS
1 0
2 17 33 35 48 80
3 2 15 55 65 77 92 96
4 16 22 36 38 52 54 71
5 14 30 46 51 53 63 68 73 74 75 76
6 8 24 42 45 61 78 82 84 95 98
7 4 6 49 62 83 99
8 5 26 34 37 40 47 81 90
9 9 18 23 29 39 44 58 59 64 69 70 93 94
10 19 56 60 86 88
11 1 41 43 50 57 66 85
12 3 10 11 12 13 25 27 28 67 97 100
13 7 20 21 31 32 72 79 87 89 91
EOF